14
0 37 27 58 32 14 5 44 82 93 68 67 46 48 
37 0 2 14 66 21 14 48 37 90 62 18 31 84 
27 2 0 57 78 5 33 53 39 86 38 70 29 43 
58 14 57 0 9 56 86 20 9 41 30 86 87 93 
32 66 78 9 0 75 5 23 89 75 79 44 33 74 
14 21 5 56 75 0 93 97 88 43 32 27 62 70 
5 14 33 86 5 93 0 48 37 21 95 84 79 48 
44 48 53 20 23 97 48 0 20 22 74 49 60 55 
82 37 39 9 89 88 37 20 0 27 88 27 83 69 
93 90 86 41 75 43 21 22 27 0 98 45 24 9 
68 62 38 30 79 32 95 74 88 98 0 95 39 60 
67 18 70 86 44 27 84 49 27 45 95 0 25 16 
46 31 29 87 33 62 79 60 83 24 39 25 0 97 
48 84 43 93 74 70 48 55 69 9 60 16 97 0 
RBRBRRRBRBBBRB
